results/x-10M/X-n190-k8.vrp_seed-2.out
16980	11408
