results/x-10M/X-n190-k8.vrp_seed-2.vrp.sol
Route #1: 37 29 83 182 160 184 1 165 88 44 127 172
Route #2: 105 19 57 63 66 13 120 171 110 4 163 128 34 103 108 129 156 133 72 139 149 45 99 31 118 131
Route #3: 14 16 67 51 93 75 121 158 113 107 33 162 7 155 17 79 60 116 82 122 11 175 117 26 49 119 106
Route #4: 92 144 68 130 56 8 100 42 90 76 40 32 61 180 153 84 18 185 70 141 98 148 167 136 183 25 64 188
Route #5: 135 55 91 9 114 65 20 53 154 189 140 124 187 27 15 3 96 59 62 179 46
Route #6: 169 78 147 86 125 137 151 174 48 54 126 181 41 152 87 186 146 177 123 52 71 101 47 5 176 12 24 97 143 95
Route #7: 10 43 58 28 138 85 104 89 109 35 6 2 38 77 22 36 39 30 150 80 112 73 168
Route #8: 170 166 157 173 132 134 161 74 111 23 164 69 178 21 50 94 115 145 81 142 159 102
Cost 16980.000000